NAME          ClpDefau  FREE
ROWS
 N  OBJROW
 L  ZMUNI1_PCT
 L  ZMUNI2_PCT
 L  ZMUNI3_PCT
 L  ZMUNI4_PCT
 L  ZMUNI5_PCT
 L  ZMUNI6_PCT
 L  ZMUNI7_PCT
 L  ZMUNI8_PCT
 L  ZMUNI9_PCT
COLUMNS
    QMUNI1 OBJROW 1.          
    QMUNI1 ZMUNI1_PCT 29140.4724  
    QMUNI1 ZMUNI2_PCT 1959.9914   
    QMUNI1 ZMUNI3_PCT 4427.1469   
    QMUNI1 ZMUNI4_PCT 3245.7352   
    QMUNI1 ZMUNI5_PCT 560.7605    
    QMUNI1 ZMUNI6_PCT 770.5688    
    QMUNI1 ZMUNI7_PCT 2438.736    
    QMUNI1 ZMUNI8_PCT 1985.5499   
    QMUNI1 ZMUNI9_PCT 1074.4095   
    QMUNI2 OBJROW 1.          
    QMUNI2 ZMUNI1_PCT 2208.5189   
    QMUNI2 ZMUNI2_PCT 34799.3851  
    QMUNI2 ZMUNI3_PCT 3004.6463   
    QMUNI2 ZMUNI4_PCT 3074.0738   
    QMUNI2 ZMUNI5_PCT 743.2938    
    QMUNI2 ZMUNI6_PCT 828.5522    
    QMUNI2 ZMUNI7_PCT 2005.0049   
    QMUNI2 ZMUNI8_PCT 2236.9385   
    QMUNI2 ZMUNI9_PCT 2207.9468   
    QMUNI3 OBJROW 1.          
    QMUNI3 ZMUNI1_PCT 4103.2791   
    QMUNI3 ZMUNI2_PCT 2491.951    
    QMUNI3 ZMUNI3_PCT 30351.2573  
    QMUNI3 ZMUNI4_PCT 4985.5232   
    QMUNI3 ZMUNI5_PCT 286.8652    
    QMUNI3 ZMUNI6_PCT 392.5323    
    QMUNI3 ZMUNI7_PCT 1525.4975   
    QMUNI3 ZMUNI8_PCT 1321.7926   
    QMUNI3 ZMUNI9_PCT 382.9957    
    QMUNI4 OBJROW 1.          
    QMUNI4 ZMUNI1_PCT 3424.4537   
    QMUNI4 ZMUNI2_PCT 3066.2537   
    QMUNI4 ZMUNI3_PCT 5573.0819   
    QMUNI4 ZMUNI4_PCT 107116.6039 
    QMUNI4 ZMUNI5_PCT 618.1717    
    QMUNI4 ZMUNI6_PCT 695.0378    
    QMUNI4 ZMUNI7_PCT 1654.4343   
    QMUNI4 ZMUNI8_PCT 1524.1623   
    QMUNI4 ZMUNI9_PCT 922.5846    
    QMUNI5 OBJROW 1.          
    QMUNI5 ZMUNI1_PCT 392.1508    
    QMUNI5 ZMUNI2_PCT 246.2387    
    QMUNI5 ZMUNI3_PCT 318.5272    
    QMUNI5 ZMUNI4_PCT 224.3996    
    QMUNI5 ZMUNI5_PCT 35983.6578  
    QMUNI5 ZMUNI6_PCT 3307.5333   
    QMUNI5 ZMUNI7_PCT 1005.1728   
    QMUNI5 ZMUNI8_PCT 829.3152    
    QMUNI5 ZMUNI9_PCT 734.3293    
    QMUNI6 OBJROW 1.          
    QMUNI6 ZMUNI1_PCT 330.7342    
    QMUNI6 ZMUNI2_PCT 132.5607    
    QMUNI6 ZMUNI3_PCT 242.8054    
    QMUNI6 ZMUNI4_PCT 172.4243    
    QMUNI6 ZMUNI5_PCT 2999.3057   
    QMUNI6 ZMUNI6_PCT 32813.0722  
    QMUNI6 ZMUNI7_PCT 621.0328    
    QMUNI6 ZMUNI8_PCT 369.6442    
    QMUNI6 ZMUNI9_PCT 190.9256    
    QMUNI7 OBJROW 1.          
    QMUNI7 ZMUNI1_PCT 1387.7868   
    QMUNI7 ZMUNI2_PCT 712.5854    
    QMUNI7 ZMUNI3_PCT 1187.5152   
    QMUNI7 ZMUNI4_PCT 887.1079    
    QMUNI7 ZMUNI5_PCT 411.9873    
    QMUNI7 ZMUNI6_PCT 568.9621    
    QMUNI7 ZMUNI7_PCT 30781.3645  
    QMUNI7 ZMUNI8_PCT 2305.603    
    QMUNI7 ZMUNI9_PCT 419.0445    
    QMUNI8 OBJROW 1.          
    QMUNI8 ZMUNI1_PCT 1628.3035   
    QMUNI8 ZMUNI2_PCT 1421.1655   
    QMUNI8 ZMUNI3_PCT 1638.031    
    QMUNI8 ZMUNI4_PCT 1339.6263   
    QMUNI8 ZMUNI5_PCT 725.7461    
    QMUNI8 ZMUNI6_PCT 836.1816    
    QMUNI8 ZMUNI7_PCT 3185.6537   
    QMUNI8 ZMUNI8_PCT 29538.9176  
    QMUNI8 ZMUNI9_PCT 2132.2251   
    QMUNI9 OBJROW 1.          
    QMUNI9 ZMUNI1_PCT 484.4665    
    QMUNI9 ZMUNI2_PCT 785.8276    
    QMUNI9 ZMUNI3_PCT 568.5806    
    QMUNI9 ZMUNI4_PCT 485.5156    
    QMUNI9 ZMUNI5_PCT 114.0594    
    QMUNI9 ZMUNI6_PCT 168.4189    
    QMUNI9 ZMUNI7_PCT 798.0347    
    QMUNI9 ZMUNI8_PCT 1310.3485   
    QMUNI9 ZMUNI9_PCT 27522.8501  
RHS
    RHS ZMUNI1_PCT   -1.4832e-5
    RHS ZMUNI2_PCT -0.000586609
    RHS ZMUNI3_PCT -0.000153107
    RHS ZMUNI4_PCT -0.00047303 
    RHS ZMUNI5_PCT 0.005540573 
    RHS ZMUNI6_PCT 0.004846527 
    RHS ZMUNI7_PCT 0.004662354 
    RHS ZMUNI8_PCT 0.005224869 
    RHS ZMUNI9_PCT 0.003968842 
BOUNDS
 LO BOUND QMUNI1 -0.000832603
 UP BOUND QMUNI1      1.1e+10
 LO BOUND QMUNI2 -0.000575187
 UP BOUND QMUNI2      1.1e+10
 LO BOUND QMUNI3 -0.000635955
 UP BOUND QMUNI3      1.1e+10
 LO BOUND QMUNI4 -0.00024176 
 UP BOUND QMUNI4      1.1e+10
 LO BOUND QMUNI5 -0.000423946
 UP BOUND QMUNI5      1.1e+10
 LO BOUND QMUNI6 -0.000590105
 UP BOUND QMUNI6      1.1e+10
 LO BOUND QMUNI7 -0.000257302
 UP BOUND QMUNI7      1.1e+10
 LO BOUND QMUNI8 -0.00036321 
 UP BOUND QMUNI8      1.1e+10
 LO BOUND QMUNI9 -0.000380342
 UP BOUND QMUNI9      1.1e+10
ENDATA
